(set-logic QF_S)
(declare-fun var0 () String)
(assert (str.in.re var0 (re.++ (re.* (re.+ (str.to.re "00"))) (re.++ (re.* (re.* (str.to.re "111"))) (re.++ (re.* (re.+ (str.to.re "2"))) (re.++ (re.+ (re.* (str.to.re "33"))) (re.++ (re.union (re.+ (str.to.re "4")) (re.union (str.to.re "5") (str.to.re "6"))) (re.++ (re.union (re.+ (str.to.re "7")) (re.+ (str.to.re "888"))) (re.++ (re.union (re.+ (str.to.re "999")) (re.+ (str.to.re "aa"))) (re.++ (re.* (re.* (str.to.re "bbb"))) (re.++ (re.* (re.+ (str.to.re "cc"))) (re.++ (re.+ (re.union (str.to.re "dd") (str.to.re "ee"))) (re.++ (re.* (re.* (str.to.re "f"))) (re.++ (re.union (re.* (str.to.re "gg")) (re.union (str.to.re "hhh") (str.to.re "iii"))) (re.++ (re.* (re.+ (str.to.re "j"))) (re.++ (re.union (re.union (str.to.re "kk") (str.to.re "lll")) (re.union (str.to.re "mmm") (str.to.re "nnn"))) (re.++ (re.union (re.+ (str.to.re "o")) (re.* (str.to.re "ppp"))) (re.++ (re.+ (re.* (str.to.re "qqq"))) (re.++ (re.+ (re.union (str.to.re "r") (str.to.re "ss"))) (re.++ (re.+ (re.union (str.to.re "t") (str.to.re "uu"))) (re.++ (re.+ (re.* (str.to.re "v"))) (re.++ (re.* (re.* (str.to.re "www"))) (re.++ (re.+ (re.union (str.to.re "xx") (str.to.re "yy"))) (re.++ (re.* (re.* (str.to.re "zz"))) (re.++ (re.* (re.+ (str.to.re "AAA"))) (re.++ (re.union (re.union (str.to.re "BB") (str.to.re "CCC")) (re.* (str.to.re "DD"))) (re.++ (re.* (re.+ (str.to.re "EE"))) (re.++ (re.union (re.+ (str.to.re "FF")) (re.union (str.to.re "G") (str.to.re "H"))) (re.++ (re.* (re.union (str.to.re "II") (str.to.re "J"))) (re.++ (re.* (re.* (str.to.re "KK"))) (re.union (re.* (str.to.re "LL")) (re.* (str.to.re "MMM")))))))))))))))))))))))))))))))))
(check-sat)